77
0 32 22 49 74 50 20 40 26 34 
59 58 5 51 39 45 16 2 12 9 
66 54 47 13 24 29 4 3 38 15 
35 30 64 69 61 19 76 23 7 53 
68 52 31 11 44 75 71 42 57 63 
17 14 10 36 18 28 65 1 73 37 
55 46 62 27 33 25 72 60 56 43 
67 21 8 41 70 48 6 
